NAME CVRP
ROWS
 N  OBJ
 E  4a[1]   
 E  4a[2]   
 E  4a[3]   
 E  4a[4]   
 E  4a[5]   
 E  4b[0]   
 E  4b[1]   
 E  4b[2]   
 E  4b[3]   
 E  4b[4]   
 E  4b[5]   
 L  5a[1]   
 L  5a[2]   
 L  5a[3]   
 L  5a[4]   
 L  5a[5]   
 L  5b[1]   
 L  5b[2]   
 L  5b[3]   
 L  5b[4]   
 L  5b[5]   
 L  5c      
 E  6a[1]   
 E  6a[2]   
 E  6a[3]   
 E  6a[4]   
 E  6a[5]   
 L  6b[0,1] 
 L  6b[0,2] 
 L  6b[0,3] 
 L  6b[0,4] 
 L  6b[0,5] 
 L  6b[1,0] 
 L  6b[1,2] 
 L  6b[1,3] 
 L  6b[1,4] 
 L  6b[1,5] 
 L  6b[2,0] 
 L  6b[2,1] 
 L  6b[2,3] 
 L  6b[2,4] 
 L  6b[2,5] 
 L  6b[3,0] 
 L  6b[3,1] 
 L  6b[3,2] 
 L  6b[3,4] 
 L  6b[3,5] 
 L  6b[4,0] 
 L  6b[4,1] 
 L  6b[4,2] 
 L  6b[4,3] 
 L  6b[4,5] 
 L  6b[5,0] 
 L  6b[5,1] 
 L  6b[5,2] 
 L  6b[5,3] 
 L  6b[5,4] 
 L  7a[0,1] 
 L  7a[0,2] 
 L  7a[0,3] 
 L  7a[0,4] 
 L  7a[0,5] 
 L  7a[1,2] 
 L  7a[1,3] 
 L  7a[1,4] 
 L  7a[1,5] 
 L  7a[2,1] 
 L  7a[2,3] 
 L  7a[2,4] 
 L  7a[2,5] 
 L  7a[3,1] 
 L  7a[3,2] 
 L  7a[3,4] 
 L  7a[3,5] 
 L  7a[4,1] 
 L  7a[4,2] 
 L  7a[4,3] 
 L  7a[4,5] 
 L  7a[5,1] 
 L  7a[5,2] 
 L  7a[5,3] 
 L  7a[5,4] 
 L  7b[1]   
 L  7b[2]   
 L  7b[3]   
 L  7b[4]   
 L  7b[5]   
 L  7c[1,2] 
 L  7c[1,3] 
 L  7c[1,4] 
 L  7c[1,5] 
 L  7c[2,1] 
 L  7c[2,3] 
 L  7c[2,4] 
 L  7c[2,5] 
 L  7c[3,1] 
 L  7c[3,2] 
 L  7c[3,4] 
 L  7c[3,5] 
 L  7c[4,1] 
 L  7c[4,2] 
 L  7c[4,3] 
 L  7c[4,5] 
 L  7c[5,1] 
 L  7c[5,2] 
 L  7c[5,3] 
 L  7c[5,4] 
 L  7d_7e[1]
 L  7d_7e[2]
 L  7d_7e[3]
 L  7d_7e[4]
 L  7d_7e[5]
 L  8a[0,1] 
 L  8a[0,2] 
 L  8a[0,3] 
 L  8a[0,4] 
 L  8a[0,5] 
 L  8a[1,0] 
 L  8a[1,2] 
 L  8a[1,3] 
 L  8a[1,4] 
 L  8a[1,5] 
 L  8a[2,0] 
 L  8a[2,1] 
 L  8a[2,3] 
 L  8a[2,4] 
 L  8a[2,5] 
 L  8a[3,0] 
 L  8a[3,1] 
 L  8a[3,2] 
 L  8a[3,4] 
 L  8a[3,5] 
 L  8a[4,0] 
 L  8a[4,1] 
 L  8a[4,2] 
 L  8a[4,3] 
 L  8a[4,5] 
 L  8a[5,0] 
 L  8a[5,1] 
 L  8a[5,2] 
 L  8a[5,3] 
 L  8a[5,4] 
 L  9a[0,1] 
 L  9a[0,2] 
 L  9a[0,3] 
 L  9a[0,4] 
 L  9a[0,5] 
 L  9a[1,2] 
 L  9a[1,3] 
 L  9a[1,4] 
 L  9a[1,5] 
 L  9a[2,1] 
 L  9a[2,3] 
 L  9a[2,4] 
 L  9a[2,5] 
 L  9a[3,1] 
 L  9a[3,2] 
 L  9a[3,4] 
 L  9a[3,5] 
 L  9a[4,1] 
 L  9a[4,2] 
 L  9a[4,3] 
 L  9a[4,5] 
 L  9a[5,1] 
 L  9a[5,2] 
 L  9a[5,3] 
 L  9a[5,4] 
 L  9b[1]   
 L  9b[2]   
 L  9b[3]   
 L  9b[4]   
 L  9b[5]   
 L  9c[1]   
 L  9c[2]   
 L  9c[3]   
 L  9c[4]   
 L  9c[5]   
COLUMNS
    MARKER    'MARKER'                 'INTORG'
    x[0,1]    OBJ       5.3407965039991046e+04
    x[0,1]    4b[0]     1
    x[0,1]    4b[1]     -1
    x[0,1]    5b[1]     -1
    x[0,1]    5c        1
    x[0,1]    6b[0,1]   -1000000
    x[0,1]    7a[0,1]   1000000
    x[0,1]    8a[0,1]   -10
    x[0,1]    9a[0,1]   1000000
    x[0,2]    OBJ       3.3701431748340248e+04
    x[0,2]    4b[0]     1
    x[0,2]    4b[2]     -1
    x[0,2]    5b[2]     -1
    x[0,2]    5c        1
    x[0,2]    6b[0,2]   -1000000
    x[0,2]    7a[0,2]   1000000
    x[0,2]    8a[0,2]   -10
    x[0,2]    9a[0,2]   1000000
    x[0,3]    OBJ       3.1189344600942117e+04
    x[0,3]    4b[0]     1
    x[0,3]    4b[3]     -1
    x[0,3]    5b[3]     -1
    x[0,3]    5c        1
    x[0,3]    6b[0,3]   -1000000
    x[0,3]    7a[0,3]   1000000
    x[0,3]    8a[0,3]   -10
    x[0,3]    9a[0,3]   1000000
    x[0,4]    OBJ       1.0856098259340481e+05
    x[0,4]    4b[0]     1
    x[0,4]    4b[4]     -1
    x[0,4]    5b[4]     -1
    x[0,4]    5c        1
    x[0,4]    6b[0,4]   -1000000
    x[0,4]    7a[0,4]   1000000
    x[0,4]    8a[0,4]   -10
    x[0,4]    9a[0,4]   1000000
    x[0,5]    OBJ       8.6122686305932060e+04
    x[0,5]    4b[0]     1
    x[0,5]    4b[5]     -1
    x[0,5]    5b[5]     -1
    x[0,5]    5c        1
    x[0,5]    6b[0,5]   -1000000
    x[0,5]    7a[0,5]   1000000
    x[0,5]    8a[0,5]   -10
    x[0,5]    9a[0,5]   1000000
    x[1,0]    OBJ       5.3407965039991046e+04
    x[1,0]    4a[1]     1
    x[1,0]    4b[0]     -1
    x[1,0]    4b[1]     1
    x[1,0]    5a[1]     -1
    x[1,0]    6b[1,0]   -1000000
    x[1,0]    7b[1]     1000000
    x[1,0]    8a[1,0]   -10
    x[1,0]    9b[1]     1000000
    x[1,0]    9c[1]     -1000000
    x[1,2]    OBJ       5.4501554044486911e+04
    x[1,2]    4a[1]     1
    x[1,2]    4b[1]     1
    x[1,2]    4b[2]     -1
    x[1,2]    6b[1,2]   -1000000
    x[1,2]    7a[1,2]   1000000
    x[1,2]    8a[1,2]   -10
    x[1,2]    9a[1,2]   1000000
    x[1,3]    OBJ       3.6241767063223313e+04
    x[1,3]    4a[1]     1
    x[1,3]    4b[1]     1
    x[1,3]    4b[3]     -1
    x[1,3]    6b[1,3]   -1000000
    x[1,3]    7a[1,3]   1000000
    x[1,3]    8a[1,3]   -10
    x[1,3]    9a[1,3]   1000000
    x[1,4]    OBJ       1.3401727517473043e+05
    x[1,4]    4a[1]     1
    x[1,4]    4b[1]     1
    x[1,4]    4b[4]     -1
    x[1,4]    6b[1,4]   -1000000
    x[1,4]    7a[1,4]   1000000
    x[1,4]    8a[1,4]   -10
    x[1,4]    9a[1,4]   1000000
    x[1,5]    OBJ       1.1023169142802793e+05
    x[1,5]    4a[1]     1
    x[1,5]    4b[1]     1
    x[1,5]    4b[5]     -1
    x[1,5]    6b[1,5]   -1000000
    x[1,5]    7a[1,5]   1000000
    x[1,5]    8a[1,5]   -10
    x[1,5]    9a[1,5]   1000000
    x[2,0]    OBJ       3.3701431748340248e+04
    x[2,0]    4a[2]     1
    x[2,0]    4b[0]     -1
    x[2,0]    4b[2]     1
    x[2,0]    5a[2]     -1
    x[2,0]    6b[2,0]   -1000000
    x[2,0]    7b[2]     1000000
    x[2,0]    8a[2,0]   -10
    x[2,0]    9b[2]     1000000
    x[2,0]    9c[2]     -1000000
    x[2,1]    OBJ       5.4501554044486911e+04
    x[2,1]    4a[2]     1
    x[2,1]    4b[1]     -1
    x[2,1]    4b[2]     1
    x[2,1]    6b[2,1]   -1000000
    x[2,1]    7a[2,1]   1000000
    x[2,1]    8a[2,1]   -10
    x[2,1]    9a[2,1]   1000000
    x[2,3]    OBJ       1.8322404147864516e+04
    x[2,3]    4a[2]     1
    x[2,3]    4b[2]     1
    x[2,3]    4b[3]     -1
    x[2,3]    6b[2,3]   -1000000
    x[2,3]    7a[2,3]   1000000
    x[2,3]    8a[2,3]   -10
    x[2,3]    9a[2,3]   1000000
    x[2,4]    OBJ       8.2399242721027622e+04
    x[2,4]    4a[2]     1
    x[2,4]    4b[2]     1
    x[2,4]    4b[4]     -1
    x[2,4]    6b[2,4]   -1000000
    x[2,4]    7a[2,4]   1000000
    x[2,4]    8a[2,4]   -10
    x[2,4]    9a[2,4]   1000000
    x[2,5]    OBJ       5.8636326751646608e+04
    x[2,5]    4a[2]     1
    x[2,5]    4b[2]     1
    x[2,5]    4b[5]     -1
    x[2,5]    6b[2,5]   -1000000
    x[2,5]    7a[2,5]   1000000
    x[2,5]    8a[2,5]   -10
    x[2,5]    9a[2,5]   1000000
    x[3,0]    OBJ       3.1189344600942117e+04
    x[3,0]    4a[3]     1
    x[3,0]    4b[0]     -1
    x[3,0]    4b[3]     1
    x[3,0]    5a[3]     -1
    x[3,0]    6b[3,0]   -1000000
    x[3,0]    7b[3]     1000000
    x[3,0]    8a[3,0]   -10
    x[3,0]    9b[3]     1000000
    x[3,0]    9c[3]     -1000000
    x[3,1]    OBJ       3.6241767063223313e+04
    x[3,1]    4a[3]     1
    x[3,1]    4b[1]     -1
    x[3,1]    4b[3]     1
    x[3,1]    6b[3,1]   -1000000
    x[3,1]    7a[3,1]   1000000
    x[3,1]    8a[3,1]   -10
    x[3,1]    9a[3,1]   1000000
    x[3,2]    OBJ       1.8322404147864516e+04
    x[3,2]    4a[3]     1
    x[3,2]    4b[2]     -1
    x[3,2]    4b[3]     1
    x[3,2]    6b[3,2]   -1000000
    x[3,2]    7a[3,2]   1000000
    x[3,2]    8a[3,2]   -10
    x[3,2]    9a[3,2]   1000000
    x[3,4]    OBJ       9.9794414198172351e+04
    x[3,4]    4a[3]     1
    x[3,4]    4b[3]     1
    x[3,4]    4b[4]     -1
    x[3,4]    6b[3,4]   -1000000
    x[3,4]    7a[3,4]   1000000
    x[3,4]    8a[3,4]   -10
    x[3,4]    9a[3,4]   1000000
    x[3,5]    OBJ       7.5918235318240870e+04
    x[3,5]    4a[3]     1
    x[3,5]    4b[3]     1
    x[3,5]    4b[5]     -1
    x[3,5]    6b[3,5]   -1000000
    x[3,5]    7a[3,5]   1000000
    x[3,5]    8a[3,5]   -10
    x[3,5]    9a[3,5]   1000000
    x[4,0]    OBJ       1.0856098259340481e+05
    x[4,0]    4a[4]     1
    x[4,0]    4b[0]     -1
    x[4,0]    4b[4]     1
    x[4,0]    5a[4]     -1
    x[4,0]    6b[4,0]   -1000000
    x[4,0]    7b[4]     1000000
    x[4,0]    8a[4,0]   -10
    x[4,0]    9b[4]     1000000
    x[4,0]    9c[4]     -1000000
    x[4,1]    OBJ       1.3401727517473043e+05
    x[4,1]    4a[4]     1
    x[4,1]    4b[1]     -1
    x[4,1]    4b[4]     1
    x[4,1]    6b[4,1]   -1000000
    x[4,1]    7a[4,1]   1000000
    x[4,1]    8a[4,1]   -10
    x[4,1]    9a[4,1]   1000000
    x[4,2]    OBJ       8.2399242721027622e+04
    x[4,2]    4a[4]     1
    x[4,2]    4b[2]     -1
    x[4,2]    4b[4]     1
    x[4,2]    6b[4,2]   -1000000
    x[4,2]    7a[4,2]   1000000
    x[4,2]    8a[4,2]   -10
    x[4,2]    9a[4,2]   1000000
    x[4,3]    OBJ       9.9794414198172351e+04
    x[4,3]    4a[4]     1
    x[4,3]    4b[3]     -1
    x[4,3]    4b[4]     1
    x[4,3]    6b[4,3]   -1000000
    x[4,3]    7a[4,3]   1000000
    x[4,3]    8a[4,3]   -10
    x[4,3]    9a[4,3]   1000000
    x[4,5]    OBJ       2.3883217895540558e+04
    x[4,5]    4a[4]     1
    x[4,5]    4b[4]     1
    x[4,5]    4b[5]     -1
    x[4,5]    6b[4,5]   -1000000
    x[4,5]    7a[4,5]   1000000
    x[4,5]    8a[4,5]   -10
    x[4,5]    9a[4,5]   1000000
    x[5,0]    OBJ       8.6122686305932060e+04
    x[5,0]    4a[5]     1
    x[5,0]    4b[0]     -1
    x[5,0]    4b[5]     1
    x[5,0]    5a[5]     -1
    x[5,0]    6b[5,0]   -1000000
    x[5,0]    7b[5]     1000000
    x[5,0]    8a[5,0]   -10
    x[5,0]    9b[5]     1000000
    x[5,0]    9c[5]     -1000000
    x[5,1]    OBJ       1.1023169142802793e+05
    x[5,1]    4a[5]     1
    x[5,1]    4b[1]     -1
    x[5,1]    4b[5]     1
    x[5,1]    6b[5,1]   -1000000
    x[5,1]    7a[5,1]   1000000
    x[5,1]    8a[5,1]   -10
    x[5,1]    9a[5,1]   1000000
    x[5,2]    OBJ       5.8636326751646608e+04
    x[5,2]    4a[5]     1
    x[5,2]    4b[2]     -1
    x[5,2]    4b[5]     1
    x[5,2]    6b[5,2]   -1000000
    x[5,2]    7a[5,2]   1000000
    x[5,2]    8a[5,2]   -10
    x[5,2]    9a[5,2]   1000000
    x[5,3]    OBJ       7.5918235318240870e+04
    x[5,3]    4a[5]     1
    x[5,3]    4b[3]     -1
    x[5,3]    4b[5]     1
    x[5,3]    6b[5,3]   -1000000
    x[5,3]    7a[5,3]   1000000
    x[5,3]    8a[5,3]   -10
    x[5,3]    9a[5,3]   1000000
    x[5,4]    OBJ       2.3883217895540558e+04
    x[5,4]    4a[5]     1
    x[5,4]    4b[4]     -1
    x[5,4]    4b[5]     1
    x[5,4]    6b[5,4]   -1000000
    x[5,4]    7a[5,4]   1000000
    x[5,4]    8a[5,4]   -10
    x[5,4]    9a[5,4]   1000000
    sigma[1,1]  5a[1]     1
    sigma[1,1]  5b[1]     1
    sigma[1,2]  5a[1]     1
    sigma[1,2]  5b[2]     1
    sigma[1,2]  5c        -1
    sigma[1,2]  7c[1,2]   1000000
    sigma[1,3]  5a[1]     1
    sigma[1,3]  5b[3]     1
    sigma[1,3]  5c        -1
    sigma[1,3]  7c[1,3]   1000000
    sigma[1,4]  5a[1]     1
    sigma[1,4]  5b[4]     1
    sigma[1,4]  5c        -1
    sigma[1,4]  7c[1,4]   1000000
    sigma[1,5]  5a[1]     1
    sigma[1,5]  5b[5]     1
    sigma[1,5]  5c        -1
    sigma[1,5]  7c[1,5]   1000000
    sigma[2,1]  5a[2]     1
    sigma[2,1]  5b[1]     1
    sigma[2,1]  5c        -1
    sigma[2,1]  7c[2,1]   1000000
    sigma[2,2]  5a[2]     1
    sigma[2,2]  5b[2]     1
    sigma[2,3]  5a[2]     1
    sigma[2,3]  5b[3]     1
    sigma[2,3]  5c        -1
    sigma[2,3]  7c[2,3]   1000000
    sigma[2,4]  5a[2]     1
    sigma[2,4]  5b[4]     1
    sigma[2,4]  5c        -1
    sigma[2,4]  7c[2,4]   1000000
    sigma[2,5]  5a[2]     1
    sigma[2,5]  5b[5]     1
    sigma[2,5]  5c        -1
    sigma[2,5]  7c[2,5]   1000000
    sigma[3,1]  5a[3]     1
    sigma[3,1]  5b[1]     1
    sigma[3,1]  5c        -1
    sigma[3,1]  7c[3,1]   1000000
    sigma[3,2]  5a[3]     1
    sigma[3,2]  5b[2]     1
    sigma[3,2]  5c        -1
    sigma[3,2]  7c[3,2]   1000000
    sigma[3,3]  5a[3]     1
    sigma[3,3]  5b[3]     1
    sigma[3,4]  5a[3]     1
    sigma[3,4]  5b[4]     1
    sigma[3,4]  5c        -1
    sigma[3,4]  7c[3,4]   1000000
    sigma[3,5]  5a[3]     1
    sigma[3,5]  5b[5]     1
    sigma[3,5]  5c        -1
    sigma[3,5]  7c[3,5]   1000000
    sigma[4,1]  5a[4]     1
    sigma[4,1]  5b[1]     1
    sigma[4,1]  5c        -1
    sigma[4,1]  7c[4,1]   1000000
    sigma[4,2]  5a[4]     1
    sigma[4,2]  5b[2]     1
    sigma[4,2]  5c        -1
    sigma[4,2]  7c[4,2]   1000000
    sigma[4,3]  5a[4]     1
    sigma[4,3]  5b[3]     1
    sigma[4,3]  5c        -1
    sigma[4,3]  7c[4,3]   1000000
    sigma[4,4]  5a[4]     1
    sigma[4,4]  5b[4]     1
    sigma[4,5]  5a[4]     1
    sigma[4,5]  5b[5]     1
    sigma[4,5]  5c        -1
    sigma[4,5]  7c[4,5]   1000000
    sigma[5,1]  5a[5]     1
    sigma[5,1]  5b[1]     1
    sigma[5,1]  5c        -1
    sigma[5,1]  7c[5,1]   1000000
    sigma[5,2]  5a[5]     1
    sigma[5,2]  5b[2]     1
    sigma[5,2]  5c        -1
    sigma[5,2]  7c[5,2]   1000000
    sigma[5,3]  5a[5]     1
    sigma[5,3]  5b[3]     1
    sigma[5,3]  5c        -1
    sigma[5,3]  7c[5,3]   1000000
    sigma[5,4]  5a[5]     1
    sigma[5,4]  5b[4]     1
    sigma[5,4]  5c        -1
    sigma[5,4]  7c[5,4]   1000000
    sigma[5,5]  5a[5]     1
    sigma[5,5]  5b[5]     1
    MARKER    'MARKER'                 'INTEND'
    y[0,1]    6a[1]     1
    y[0,1]    6b[0,1]   1
    y[0,1]    8a[0,1]   1
    y[0,2]    6a[2]     1
    y[0,2]    6b[0,2]   1
    y[0,2]    8a[0,2]   1
    y[0,3]    6a[3]     1
    y[0,3]    6b[0,3]   1
    y[0,3]    8a[0,3]   1
    y[0,4]    6a[4]     1
    y[0,4]    6b[0,4]   1
    y[0,4]    8a[0,4]   1
    y[0,5]    6a[5]     1
    y[0,5]    6b[0,5]   1
    y[0,5]    8a[0,5]   1
    y[1,0]    6a[1]     -1
    y[1,0]    6b[1,0]   1
    y[1,0]    8a[1,0]   1
    y[1,2]    6a[1]     -1
    y[1,2]    6a[2]     1
    y[1,2]    6b[1,2]   1
    y[1,2]    8a[1,2]   1
    y[1,3]    6a[1]     -1
    y[1,3]    6a[3]     1
    y[1,3]    6b[1,3]   1
    y[1,3]    8a[1,3]   1
    y[1,4]    6a[1]     -1
    y[1,4]    6a[4]     1
    y[1,4]    6b[1,4]   1
    y[1,4]    8a[1,4]   1
    y[1,5]    6a[1]     -1
    y[1,5]    6a[5]     1
    y[1,5]    6b[1,5]   1
    y[1,5]    8a[1,5]   1
    y[2,0]    6a[2]     -1
    y[2,0]    6b[2,0]   1
    y[2,0]    8a[2,0]   1
    y[2,1]    6a[1]     1
    y[2,1]    6a[2]     -1
    y[2,1]    6b[2,1]   1
    y[2,1]    8a[2,1]   1
    y[2,3]    6a[2]     -1
    y[2,3]    6a[3]     1
    y[2,3]    6b[2,3]   1
    y[2,3]    8a[2,3]   1
    y[2,4]    6a[2]     -1
    y[2,4]    6a[4]     1
    y[2,4]    6b[2,4]   1
    y[2,4]    8a[2,4]   1
    y[2,5]    6a[2]     -1
    y[2,5]    6a[5]     1
    y[2,5]    6b[2,5]   1
    y[2,5]    8a[2,5]   1
    y[3,0]    6a[3]     -1
    y[3,0]    6b[3,0]   1
    y[3,0]    8a[3,0]   1
    y[3,1]    6a[1]     1
    y[3,1]    6a[3]     -1
    y[3,1]    6b[3,1]   1
    y[3,1]    8a[3,1]   1
    y[3,2]    6a[2]     1
    y[3,2]    6a[3]     -1
    y[3,2]    6b[3,2]   1
    y[3,2]    8a[3,2]   1
    y[3,4]    6a[3]     -1
    y[3,4]    6a[4]     1
    y[3,4]    6b[3,4]   1
    y[3,4]    8a[3,4]   1
    y[3,5]    6a[3]     -1
    y[3,5]    6a[5]     1
    y[3,5]    6b[3,5]   1
    y[3,5]    8a[3,5]   1
    y[4,0]    6a[4]     -1
    y[4,0]    6b[4,0]   1
    y[4,0]    8a[4,0]   1
    y[4,1]    6a[1]     1
    y[4,1]    6a[4]     -1
    y[4,1]    6b[4,1]   1
    y[4,1]    8a[4,1]   1
    y[4,2]    6a[2]     1
    y[4,2]    6a[4]     -1
    y[4,2]    6b[4,2]   1
    y[4,2]    8a[4,2]   1
    y[4,3]    6a[3]     1
    y[4,3]    6a[4]     -1
    y[4,3]    6b[4,3]   1
    y[4,3]    8a[4,3]   1
    y[4,5]    6a[4]     -1
    y[4,5]    6a[5]     1
    y[4,5]    6b[4,5]   1
    y[4,5]    8a[4,5]   1
    y[5,0]    6a[5]     -1
    y[5,0]    6b[5,0]   1
    y[5,0]    8a[5,0]   1
    y[5,1]    6a[1]     1
    y[5,1]    6a[5]     -1
    y[5,1]    6b[5,1]   1
    y[5,1]    8a[5,1]   1
    y[5,2]    6a[2]     1
    y[5,2]    6a[5]     -1
    y[5,2]    6b[5,2]   1
    y[5,2]    8a[5,2]   1
    y[5,3]    6a[3]     1
    y[5,3]    6a[5]     -1
    y[5,3]    6b[5,3]   1
    y[5,3]    8a[5,3]   1
    y[5,4]    6a[4]     1
    y[5,4]    6a[5]     -1
    y[5,4]    6b[5,4]   1
    y[5,4]    8a[5,4]   1
    t[0]      7a[0,1]   1
    t[0]      7a[0,2]   1
    t[0]      7a[0,3]   1
    t[0]      7a[0,4]   1
    t[0]      7a[0,5]   1
    t[1]      7a[0,1]   -1
    t[1]      7a[1,2]   1
    t[1]      7a[1,3]   1
    t[1]      7a[1,4]   1
    t[1]      7a[1,5]   1
    t[1]      7a[2,1]   -1
    t[1]      7a[3,1]   -1
    t[1]      7a[4,1]   -1
    t[1]      7a[5,1]   -1
    t[1]      7b[1]     1
    t[1]      7c[2,1]   -1
    t[1]      7c[3,1]   -1
    t[1]      7c[4,1]   -1
    t[1]      7c[5,1]   -1
    t[1]      7d_7e[1]  1
    t[2]      7a[0,2]   -1
    t[2]      7a[1,2]   -1
    t[2]      7a[2,1]   1
    t[2]      7a[2,3]   1
    t[2]      7a[2,4]   1
    t[2]      7a[2,5]   1
    t[2]      7a[3,2]   -1
    t[2]      7a[4,2]   -1
    t[2]      7a[5,2]   -1
    t[2]      7b[2]     1
    t[2]      7c[1,2]   -1
    t[2]      7c[3,2]   -1
    t[2]      7c[4,2]   -1
    t[2]      7c[5,2]   -1
    t[2]      7d_7e[2]  1
    t[3]      7a[0,3]   -1
    t[3]      7a[1,3]   -1
    t[3]      7a[2,3]   -1
    t[3]      7a[3,1]   1
    t[3]      7a[3,2]   1
    t[3]      7a[3,4]   1
    t[3]      7a[3,5]   1
    t[3]      7a[4,3]   -1
    t[3]      7a[5,3]   -1
    t[3]      7b[3]     1
    t[3]      7c[1,3]   -1
    t[3]      7c[2,3]   -1
    t[3]      7c[4,3]   -1
    t[3]      7c[5,3]   -1
    t[3]      7d_7e[3]  1
    t[4]      7a[0,4]   -1
    t[4]      7a[1,4]   -1
    t[4]      7a[2,4]   -1
    t[4]      7a[3,4]   -1
    t[4]      7a[4,1]   1
    t[4]      7a[4,2]   1
    t[4]      7a[4,3]   1
    t[4]      7a[4,5]   1
    t[4]      7a[5,4]   -1
    t[4]      7b[4]     1
    t[4]      7c[1,4]   -1
    t[4]      7c[2,4]   -1
    t[4]      7c[3,4]   -1
    t[4]      7c[5,4]   -1
    t[4]      7d_7e[4]  1
    t[5]      7a[0,5]   -1
    t[5]      7a[1,5]   -1
    t[5]      7a[2,5]   -1
    t[5]      7a[3,5]   -1
    t[5]      7a[4,5]   -1
    t[5]      7a[5,1]   1
    t[5]      7a[5,2]   1
    t[5]      7a[5,3]   1
    t[5]      7a[5,4]   1
    t[5]      7b[5]     1
    t[5]      7c[1,5]   -1
    t[5]      7c[2,5]   -1
    t[5]      7c[3,5]   -1
    t[5]      7c[4,5]   -1
    t[5]      7d_7e[5]  1
    a[1]      7b[1]     -1
    a[1]      7c[1,2]   1
    a[1]      7c[1,3]   1
    a[1]      7c[1,4]   1
    a[1]      7c[1,5]   1
    a[2]      7b[2]     -1
    a[2]      7c[2,1]   1
    a[2]      7c[2,3]   1
    a[2]      7c[2,4]   1
    a[2]      7c[2,5]   1
    a[3]      7b[3]     -1
    a[3]      7c[3,1]   1
    a[3]      7c[3,2]   1
    a[3]      7c[3,4]   1
    a[3]      7c[3,5]   1
    a[4]      7b[4]     -1
    a[4]      7c[4,1]   1
    a[4]      7c[4,2]   1
    a[4]      7c[4,3]   1
    a[4]      7c[4,5]   1
    a[5]      7b[5]     -1
    a[5]      7c[5,1]   1
    a[5]      7c[5,2]   1
    a[5]      7c[5,3]   1
    a[5]      7c[5,4]   1
    f[0]      9a[0,1]   1
    f[0]      9a[0,2]   1
    f[0]      9a[0,3]   1
    f[0]      9a[0,4]   1
    f[0]      9a[0,5]   1
    f[1]      9a[0,1]   -1
    f[1]      9a[1,2]   1
    f[1]      9a[1,3]   1
    f[1]      9a[1,4]   1
    f[1]      9a[1,5]   1
    f[1]      9a[2,1]   -1
    f[1]      9a[3,1]   -1
    f[1]      9a[4,1]   -1
    f[1]      9a[5,1]   -1
    f[1]      9b[1]     1
    f[2]      9a[0,2]   -1
    f[2]      9a[1,2]   -1
    f[2]      9a[2,1]   1
    f[2]      9a[2,3]   1
    f[2]      9a[2,4]   1
    f[2]      9a[2,5]   1
    f[2]      9a[3,2]   -1
    f[2]      9a[4,2]   -1
    f[2]      9a[5,2]   -1
    f[2]      9b[2]     1
    f[3]      9a[0,3]   -1
    f[3]      9a[1,3]   -1
    f[3]      9a[2,3]   -1
    f[3]      9a[3,1]   1
    f[3]      9a[3,2]   1
    f[3]      9a[3,4]   1
    f[3]      9a[3,5]   1
    f[3]      9a[4,3]   -1
    f[3]      9a[5,3]   -1
    f[3]      9b[3]     1
    f[4]      9a[0,4]   -1
    f[4]      9a[1,4]   -1
    f[4]      9a[2,4]   -1
    f[4]      9a[3,4]   -1
    f[4]      9a[4,1]   1
    f[4]      9a[4,2]   1
    f[4]      9a[4,3]   1
    f[4]      9a[4,5]   1
    f[4]      9a[5,4]   -1
    f[4]      9b[4]     1
    f[5]      9a[0,5]   -1
    f[5]      9a[1,5]   -1
    f[5]      9a[2,5]   -1
    f[5]      9a[3,5]   -1
    f[5]      9a[4,5]   -1
    f[5]      9a[5,1]   1
    f[5]      9a[5,2]   1
    f[5]      9a[5,3]   1
    f[5]      9a[5,4]   1
    f[5]      9b[5]     1
    z[1]      9b[1]     -1
    z[1]      9c[1]     1
    z[2]      9b[2]     -1
    z[2]      9c[2]     1
    z[3]      9b[3]     -1
    z[3]      9c[3]     1
    z[4]      9b[4]     -1
    z[4]      9c[4]     1
    z[5]      9b[5]     -1
    z[5]      9c[5]     1
RHS
    RHS1      4a[1]     1
    RHS1      4a[2]     1
    RHS1      4a[3]     1
    RHS1      4a[4]     1
    RHS1      4a[5]     1
    RHS1      5c        4
    RHS1      6a[1]     2
    RHS1      6a[2]     2
    RHS1      6a[3]     2
    RHS1      6a[4]     2
    RHS1      6a[5]     2
    RHS1      7a[0,1]   9.9852100974381866e+05
    RHS1      7a[0,2]   9.9906672929519345e+05
    RHS1      7a[0,3]   9.9913629480683384e+05
    RHS1      7a[0,4]   9.9699369494162721e+05
    RHS1      7a[0,5]   9.9761506333770137e+05
    RHS1      7a[1,2]   998490.725731299
    RHS1      7a[1,3]   9.9899638152636657e+05
    RHS1      7a[1,4]   996288.751237854
    RHS1      7a[1,5]   996947.429144279
    RHS1      7a[2,1]   998490.725731299
    RHS1      7a[2,3]   9.9949261019055452e+05
    RHS1      7a[2,4]   9.9771817411485594e+05
    RHS1      7a[2,5]   9.9837622429802339e+05
    RHS1      7a[3,1]   9.9899638152636657e+05
    RHS1      7a[3,2]   9.9949261019055452e+05
    RHS1      7a[3,4]   9.9723646152573114e+05
    RHS1      7a[3,5]   9.9789764822123281e+05
    RHS1      7a[4,1]   996288.751237854
    RHS1      7a[4,2]   9.9771817411485594e+05
    RHS1      7a[4,3]   9.9723646152573114e+05
    RHS1      7a[4,5]   9.9933861837785225e+05
    RHS1      7a[5,1]   996947.429144279
    RHS1      7a[5,2]   9.9837622429802339e+05
    RHS1      7a[5,3]   9.9789764822123281e+05
    RHS1      7a[5,4]   9.9933861837785225e+05
    RHS1      7b[1]     9.9852100974381866e+05
    RHS1      7b[2]     9.9906672929519345e+05
    RHS1      7b[3]     9.9913629480683384e+05
    RHS1      7b[4]     9.9699369494162721e+05
    RHS1      7b[5]     9.9761506333770137e+05
    RHS1      7c[1,2]   9.9906672929519345e+05
    RHS1      7c[1,3]   9.9913629480683384e+05
    RHS1      7c[1,4]   9.9699369494162721e+05
    RHS1      7c[1,5]   9.9761506333770137e+05
    RHS1      7c[2,1]   9.9852100974381866e+05
    RHS1      7c[2,3]   9.9913629480683384e+05
    RHS1      7c[2,4]   9.9699369494162721e+05
    RHS1      7c[2,5]   9.9761506333770137e+05
    RHS1      7c[3,1]   9.9852100974381866e+05
    RHS1      7c[3,2]   9.9906672929519345e+05
    RHS1      7c[3,4]   9.9699369494162721e+05
    RHS1      7c[3,5]   9.9761506333770137e+05
    RHS1      7c[4,1]   9.9852100974381866e+05
    RHS1      7c[4,2]   9.9906672929519345e+05
    RHS1      7c[4,3]   9.9913629480683384e+05
    RHS1      7c[4,5]   9.9761506333770137e+05
    RHS1      7c[5,1]   9.9852100974381866e+05
    RHS1      7c[5,2]   9.9906672929519345e+05
    RHS1      7c[5,3]   9.9913629480683384e+05
    RHS1      7c[5,4]   9.9699369494162721e+05
    RHS1      7d_7e[1]  5500
    RHS1      7d_7e[2]  5500
    RHS1      7d_7e[3]  5500
    RHS1      7d_7e[4]  5500
    RHS1      7d_7e[5]  5500
    RHS1      9a[0,1]   9.5784877769883093e+05
    RHS1      9a[0,2]   973401.784913013
    RHS1      9a[0,3]   9.7538440199476480e+05
    RHS1      9a[0,4]   9.1432030583637615e+05
    RHS1      9a[0,5]   932029.305124489
    RHS1      9a[1,2]   9.5698568334202294e+05
    RHS1      9a[1,3]   971396.873501448
    RHS1      9a[1,4]   8.9422941027883906e+05
    RHS1      9a[1,5]   9.1300173061195039e+05
    RHS1      9a[2,1]   9.5698568334202294e+05
    RHS1      9a[2,3]   9.8553939043080551e+05
    RHS1      9a[2,4]   9.3496796227339271e+05
    RHS1      9a[2,5]   9.5372239249366731e+05
    RHS1      9a[3,1]   971396.873501448
    RHS1      9a[3,2]   9.8553939043080551e+05
    RHS1      9a[3,4]   9.2123915348333586e+05
    RHS1      9a[3,5]   9.4008297430513427e+05
    RHS1      9a[4,1]   8.9422941027883906e+05
    RHS1      9a[4,2]   9.3496796227339271e+05
    RHS1      9a[4,3]   9.2123915348333586e+05
    RHS1      9a[4,5]   9.8115062376878841e+05
    RHS1      9a[5,1]   9.1300173061195039e+05
    RHS1      9a[5,2]   9.5372239249366731e+05
    RHS1      9a[5,3]   9.4008297430513427e+05
    RHS1      9a[5,4]   9.8115062376878841e+05
    RHS1      9b[1]     9.5784877769883093e+05
    RHS1      9b[2]     973401.784913013
    RHS1      9b[3]     9.7538440199476480e+05
    RHS1      9b[4]     9.1432030583637615e+05
    RHS1      9b[5]     932029.305124489
BOUNDS
 BV BND1      x[0,1]  
 BV BND1      x[0,2]  
 BV BND1      x[0,3]  
 BV BND1      x[0,4]  
 BV BND1      x[0,5]  
 BV BND1      x[1,0]  
 BV BND1      x[1,2]  
 BV BND1      x[1,3]  
 BV BND1      x[1,4]  
 BV BND1      x[1,5]  
 BV BND1      x[2,0]  
 BV BND1      x[2,1]  
 BV BND1      x[2,3]  
 BV BND1      x[2,4]  
 BV BND1      x[2,5]  
 BV BND1      x[3,0]  
 BV BND1      x[3,1]  
 BV BND1      x[3,2]  
 BV BND1      x[3,4]  
 BV BND1      x[3,5]  
 BV BND1      x[4,0]  
 BV BND1      x[4,1]  
 BV BND1      x[4,2]  
 BV BND1      x[4,3]  
 BV BND1      x[4,5]  
 BV BND1      x[5,0]  
 BV BND1      x[5,1]  
 BV BND1      x[5,2]  
 BV BND1      x[5,3]  
 BV BND1      x[5,4]  
 BV BND1      sigma[1,1]
 BV BND1      sigma[1,2]
 BV BND1      sigma[1,3]
 BV BND1      sigma[1,4]
 BV BND1      sigma[1,5]
 BV BND1      sigma[2,1]
 BV BND1      sigma[2,2]
 BV BND1      sigma[2,3]
 BV BND1      sigma[2,4]
 BV BND1      sigma[2,5]
 BV BND1      sigma[3,1]
 BV BND1      sigma[3,2]
 BV BND1      sigma[3,3]
 BV BND1      sigma[3,4]
 BV BND1      sigma[3,5]
 BV BND1      sigma[4,1]
 BV BND1      sigma[4,2]
 BV BND1      sigma[4,3]
 BV BND1      sigma[4,4]
 BV BND1      sigma[4,5]
 BV BND1      sigma[5,1]
 BV BND1      sigma[5,2]
 BV BND1      sigma[5,3]
 BV BND1      sigma[5,4]
 BV BND1      sigma[5,5]
ENDATA
